Welcome to the CBC MILP Solver
Version: Devel (unstable)
Build Date: Feb  6 2022
command line - -import /home/danilo/psp-janniele/J30/j3063/j3063_4.lp -timeM elapsed -seconds 10800 -solve -quit (default strategy 1)
seconds was changed from 1e+08 to 10800
Continuous objective value is 0 - 0.053599 seconds
Cgl0002I 27 variables fixed
Cgl0003I 20 fixed, 0 tightened bounds, 8 strengthened rows, 2 substitutions
Cgl0003I 16 fixed, 0 tightened bounds, 4 strengthened rows, 0 substitutions
Cgl0003I 10 fixed, 0 tightened bounds, 4 strengthened rows, 0 substitutions
Cgl0003I 0 fixed, 0 tightened bounds, 3 strengthened rows, 0 substitutions
Cgl0003I 0 fixed, 0 tightened bounds, 9 strengthened rows, 0 substitutions
Cgl0003I 0 fixed, 0 tightened bounds, 7 strengthened rows, 0 substitutions
Cgl0003I 0 fixed, 0 tightened bounds, 5 strengthened rows, 0 substitutions
Cgl0003I 0 fixed, 0 tightened bounds, 4 strengthened rows, 0 substitutions
Cgl0003I 0 fixed, 0 tightened bounds, 4 strengthened rows, 0 substitutions
Cgl0003I 0 fixed, 0 tightened bounds, 4 strengthened rows, 0 substitutions
Cgl0003I 0 fixed, 0 tightened bounds, 4 strengthened rows, 0 substitutions
Cgl0003I 0 fixed, 0 tightened bounds, 3 strengthened rows, 0 substitutions
Cgl0004I processed model has 192 rows, 275 columns (275 integer (271 of which binary)) and 3702 elements
Coin3009W Conflict graph built in 0.009 seconds, density: 2.384%
Cgl0015I Clique Strengthening extended 0 cliques, 0 were dominated
Cbc0045I No integer variables out of 275 objects (275 integer) have costs
Cbc0045I branch on satisfied N create fake objective Y random cost Y
Cbc0038I Initial state - 40 integers unsatisfied sum - 10.5494
Cbc0038I Pass   1: suminf.    1.28571 (8) obj. 0 iterations 18
Cbc0038I Pass   2: suminf.    2.25000 (8) obj. 0 iterations 36
Cbc0038I Pass   3: suminf.    1.58333 (6) obj. 0 iterations 4
Cbc0038I Pass   4: suminf.    0.47778 (9) obj. 0 iterations 23
Cbc0038I Pass   5: suminf.    1.62963 (6) obj. 0 iterations 28
Cbc0038I Pass   6: suminf.    0.76587 (6) obj. 0 iterations 7
Cbc0038I Pass   7: suminf.    1.60000 (4) obj. 0 iterations 10
Cbc0038I Pass   8: suminf.    1.23810 (4) obj. 0 iterations 10
Cbc0038I Pass   9: suminf.    0.40000 (2) obj. 0 iterations 10
Cbc0038I Pass  10: suminf.    0.60000 (2) obj. 0 iterations 10
Cbc0038I Pass  11: suminf.    0.80000 (3) obj. 0 iterations 45
Cbc0038I Pass  12: suminf.    0.50000 (2) obj. 0 iterations 26
Cbc0038I Pass  13: suminf.    1.13333 (4) obj. 0 iterations 10
Cbc0038I Pass  14: suminf.    1.00000 (4) obj. 0 iterations 25
Cbc0038I Pass  15: suminf.    0.80000 (3) obj. 0 iterations 14
Cbc0038I Pass  16: suminf.    0.50000 (2) obj. 0 iterations 4
Cbc0038I Pass  17: suminf.    0.75000 (2) obj. 0 iterations 12
Cbc0038I Pass  18: suminf.    6.29331 (21) obj. 0 iterations 46
Cbc0038I Pass  19: suminf.    1.00000 (5) obj. 0 iterations 48
Cbc0038I Pass  20: suminf.    0.80000 (2) obj. 0 iterations 20
Cbc0038I Pass  21: suminf.    0.80000 (3) obj. 0 iterations 8
Cbc0038I Pass  22: suminf.    1.00000 (3) obj. 0 iterations 23
Cbc0038I Pass  23: suminf.    2.88889 (11) obj. 0 iterations 50
Cbc0038I Pass  24: suminf.    0.95238 (4) obj. 0 iterations 43
Cbc0038I Pass  25: suminf.    0.22222 (2) obj. 0 iterations 15
Cbc0038I Solution found of 0
Cbc0038I Before mini branch and bound, 198 integers at bound fixed and 0 continuous
Cbc0038I Mini branch and bound did not improve solution (0.73 seconds)
Cbc0038I After 0.73 seconds - Feasibility pump exiting with objective of 0 - took 0.09 seconds
Cbc0012I Integer solution of 0 found by feasibility pump after 0 iterations and 0 nodes (0.74 seconds)
Cbc0001I Search completed - best objective 0, took 0 iterations and 0 nodes (0.74 seconds)
Cbc0035I Maximum depth 0, 0 variables fixed on reduced cost
Cuts at root node changed objective from 0 to 0
Probing was tried 0 times and created 0 cuts of which 0 were active after adding rounds of cuts (0 seconds)
Gomory was tried 0 times and created 0 cuts of which 0 were active after adding rounds of cuts (0 seconds)
Knapsack was tried 0 times and created 0 cuts of which 0 were active after adding rounds of cuts (0 seconds)
Clique was tried 0 times and created 0 cuts of which 0 were active after adding rounds of cuts (0 seconds)
OddWheel was tried 0 times and created 0 cuts of which 0 were active after adding rounds of cuts (0 seconds)
MixedIntegerRounding2 was tried 0 times and created 0 cuts of which 0 were active after adding rounds of cuts (0 seconds)
FlowCover was tried 0 times and created 0 cuts of which 0 were active after adding rounds of cuts (0 seconds)
TwoMirCuts was tried 0 times and created 0 cuts of which 0 were active after adding rounds of cuts (0 seconds)
ZeroHalf was tried 0 times and created 0 cuts of which 0 were active after adding rounds of cuts (0 seconds)

Result - Optimal solution found
Objective value:                0
Enumerated nodes:               0
Total iterations:               0
Time (CPU seconds):             0.792365
Time (Wallclock seconds):       0.753619
Total time (CPU seconds):       0.836883   (Wallclock seconds):       0.790359
